Minimize
8.0 x185 + 8.0 x186 + 8.0 x184 + 12.0 x188 + 12.0 x189 + 12.0 x187 + 20.0 x191 + 20.0 x192 + 20.0 x190
Subject To
r_1: x2 + x3 + x1 = 0
r_2: x6 + x4 - 0.6 x2 - 0.6 x182 - 0.6 x185 - 0.6 x188 - 0.6 x191 = 0
r_3: x8 + x9 + x7 - 0.4 x2 - 0.4 x182 - 0.4 x185 - 0.4 x188 - 0.4 x191 = 0
r_4: x11 + x10 - 0.5 x3 - 0.5 x183 - 0.5 x186 - 0.5 x189 - 0.5 x192 = 0
r_5: x14 + x15 + x13 - 0.5 x3 - 0.5 x183 - 0.5 x186 - 0.5 x189 - 0.5 x192 = 0
r_6: x17 + x18 + x16 - 1.0 x1 - 1.0 x181 - 1.0 x184 - 1.0 x187 - 1.0 x190 = 0
r_7: x19 - 0.5 x6 - 0.6 x11 = 0
r_8: x24 + x22 - 0.5 x6 - 0.6 x14 = 0
r_9: x27 + x25 - 1.0 x4 - 1.0 x8 - 0.6 x17 = 0
r_10: x29 + x28 - 0.5 x9 - 0.4 x11 = 0
r_11: x32 + x33 + x31 - 0.5 x9 - 0.4 x14 = 0
r_12: x35 + x36 + x34 - 1.0 x7 - 0.4 x17 = 0
r_13: x38 + x37 - 1.0 x10 - 1.0 x15 - 0.5 x18 = 0
r_14: x41 + x42 + x40 - 1.0 x13 - 0.5 x18 = 0
r_15: x44 + x45 + x43 - 1.0 x16 = 0
r_16: x46 - 1.0 x19 - 1.0 x24 - 0.5 x27 - 1.0 x29 - 0.6 x38 = 0
r_17: x51 + x49 - 1.0 x22 - 0.5 x27 - 1.0 x32 - 0.6 x41 = 0
r_18: x54 + x52 - 1.0 x25 - 1.0 x35 - 0.6 x44 = 0
r_19: x56 + x55 - 1.0 x28 - 1.0 x33 - 0.5 x36 - 0.4 x38 = 0
r_20: x59 + x60 + x58 - 1.0 x31 - 0.5 x36 - 0.4 x41 = 0
r_21: x62 + x63 + x61 - 1.0 x34 - 0.4 x44 = 0
r_22: x65 + x64 - 1.0 x37 - 1.0 x42 - 0.5 x45 = 0
r_23: x68 + x69 + x67 - 1.0 x40 - 0.5 x45 = 0
r_24: x71 + x72 + x70 - 1.0 x43 = 0
r_25: x73 - 1.0 x46 - 1.0 x51 - 0.5 x54 - 1.0 x56 - 0.6 x65 = 0
r_26: x78 + x76 - 1.0 x49 - 0.5 x54 - 1.0 x59 - 0.6 x68 = 0
r_27: x81 + x79 - 1.0 x52 - 1.0 x62 - 0.6 x71 = 0
r_28: x83 + x82 - 1.0 x55 - 1.0 x60 - 0.5 x63 - 0.4 x65 = 0
r_29: x86 + x87 + x85 - 1.0 x58 - 0.5 x63 - 0.4 x68 = 0
r_30: x89 + x90 + x88 - 1.0 x61 - 0.4 x71 = 0
r_31: x92 + x91 - 1.0 x64 - 1.0 x69 - 0.5 x72 = 0
r_32: x95 + x96 + x94 - 1.0 x67 - 0.5 x72 = 0
r_33: x98 + x99 + x97 - 1.0 x70 = 0
r_34: x100 - 1.0 x73 - 1.0 x78 - 0.5 x81 - 1.0 x83 - 0.6 x92 = 0
r_35: x105 + x103 - 1.0 x76 - 0.5 x81 - 1.0 x86 - 0.6 x95 = 0
r_36: x108 + x106 - 1.0 x79 - 1.0 x89 - 0.6 x98 = 0
r_37: x109 - 1.0 x82 - 1.0 x87 - 0.5 x90 - 0.4 x92 = 0
r_38: x114 + x112 - 1.0 x85 - 0.5 x90 - 0.4 x95 = 0
r_39: x117 + x115 - 1.0 x88 - 0.4 x98 = 0
r_40: x118 - 1.0 x91 - 1.0 x96 - 0.5 x99 = 0
r_41: x123 + x121 - 1.0 x94 - 0.5 x99 = 0
r_42: x126 + x124 - 1.0 x97 = 0
r_43: x127 - 1.0 x100 - 1.0 x105 - 0.5 x108 = 0
r_44: x132 + x130 - 1.0 x103 - 0.5 x108 = 0
r_45: x135 + x133 - 1.0 x106 = 0
r_46: x136 - 1.0 x109 - 1.0 x114 - 0.5 x117 = 0
r_47: x141 + x139 - 1.0 x112 - 0.5 x117 = 0
r_48: x144 + x142 - 1.0 x115 = 0
r_49: x145 - 1.0 x118 - 1.0 x123 - 0.5 x126 = 0
r_50: x150 + x148 - 1.0 x121 - 0.5 x126 = 0
r_51: x153 + x151 - 1.0 x124 = 0
r_52: x154 - 1.0 x127 - 1.0 x132 - 0.5 x135 = 0
r_53: x157 - 1.0 x130 - 0.5 x135 = 0
r_54: x160 - 1.0 x133 = 0
r_55: x163 - 1.0 x136 - 1.0 x141 - 0.5 x144 = 0
r_56: x166 - 1.0 x139 - 0.5 x144 = 0
r_57: x169 - 1.0 x142 = 0
r_58: x172 - 1.0 x145 - 1.0 x150 - 0.5 x153 = 0
r_59: x175 - 1.0 x148 - 0.5 x153 = 0
r_60: x178 - 1.0 x151 = 0
r_61: x182 + x183 + x181 - 1.0 x154 = 0
r_62: x185 + x186 + x184 - 1.0 x157 - 1.0 x160 = 0
r_63: x188 + x189 + x187 - 1.0 x163 - 1.0 x172 = 0
r_64: x191 + x192 + x190 - 1.0 x166 - 1.0 x169 - 1.0 x175 - 1.0 x178 = 0
r_65: x2 + x2 + x3 + x3 + x1 + x6 + x6 + x4 + x8 + x9 + x9 + x7 + x11 + x11 + x10 + x14 + x14 + x15 + x13 + x17 + x17 + x18 + x18 + x16 + x19 + x24 + x22 + x27 + x27 + x25 + x29 + x28 + x32 + x33 + x31 + x35 + x36 + x36 + x34 + x38 + x38 + x37 + x41 + x41 + x42 + x40 + x44 + x44 + x45 + x45 + x43 + x46 + x51 + x49 + x54 + x54 + x52 + x56 + x55 + x59 + x60 + x58 + x62 + x63 + x63 + x61 + x65 + x65 + x64 + x68 + x68 + x69 + x67 + x71 + x71 + x72 + x72 + x70 + x73 + x78 + x76 + x81 + x81 + x79 + x83 + x82 + x86 + x87 + x85 + x89 + x90 + x90 + x88 + x92 + x92 + x91 + x95 + x95 + x96 + x94 + x98 + x98 + x99 + x99 + x97 + x100 + x105 + x103 + x108 + x108 + x106 + x109 + x114 + x112 + x117 + x117 + x115 + x118 + x123 + x121 + x126 + x126 + x124 + x127 + x132 + x130 + x135 + x135 + x133 + x136 + x141 + x139 + x144 + x144 + x142 + x145 + x150 + x148 + x153 + x153 + x151 + x154 + x157 + x160 + x163 + x166 + x169 + x172 + x175 + x178 + x182 + x182 + x183 + x183 + x181 + x185 + x185 + x186 + x186 + x184 + x188 + x188 + x189 + x189 + x187 + x191 + x191 + x192 + x192 + x190 = 1
End